WARNING: for repeatability, setting FPU to use double precision
============================[ Problem Statistics ]=============================
|                                                                             |
|  Number of variables:           100                                         |
|  Number of clauses:             449                                         |
|  Parse time:                   0.00 s                                       |
|  Eliminated clauses:           0.00 Mb                                      |
|  Simplification time:          0.00 s                                       |
|                                                                             |
============================[ Search Statistics ]==============================
| Conflicts |          ORIGINAL         |          LEARNT          | Progress |
|           |    Vars  Clauses Literals |    Limit  Clauses Lit/Cl |          |
===============================================================================
|       100 |      98      447     1353 |      163      100      7 |  0.010 % |
|       250 |      98      447     1353 |      180      166      7 |  0.010 % |
===============================================================================
restarts              : 3
conflicts             : 307            (85802 /sec)
decisions             : 370            (0.00 % random) (103410 /sec)
propagations          : 6573           (1837060 /sec)
conflict literals     : 2082           (18.10 % deleted)
Memory used           : 13.00 MB
CPU time              : 0.003578 s

SATISFIABLE
